
******************************************************************************
This program contains Ipopt, a library for large-scale nonlinear optimization.
 Ipopt is released as open source code under the Eclipse Public License (EPL).
         For more information visit http://projects.coin-or.org/Ipopt
******************************************************************************

This is Ipopt version 3.12.6, running with linear solver ma57.

Number of nonzeros in equality constraint Jacobian...:        0
Number of nonzeros in inequality constraint Jacobian.:       10
Number of nonzeros in Lagrangian Hessian.............:        6

Total number of variables............................:        4
                     variables with only lower bounds:        0
                variables with lower and upper bounds:        4
                     variables with only upper bounds:        0
Total number of equality constraints.................:        0
Total number of inequality constraints...............:        3
        inequality constraints with only lower bounds:        1
   inequality constraints with lower and upper bounds:        0
        inequality constraints with only upper bounds:        2

iter    objective    inf_pr   inf_du lg(mu)  ||d||  lg(rg) alpha_du alpha_pr  ls
   0 -1.2500000e+00 0.00e+00 1.04e+00  -1.0 0.00e+00    -  0.00e+00 0.00e+00   0
   1 -3.0517224e+00 0.00e+00 6.64e-01  -1.0 1.02e+00    -  4.73e-01 1.00e+00f  1
   2 -4.3987490e+00 0.00e+00 9.37e-03  -1.0 1.14e+00    -  9.87e-01 1.00e+00f  1
   3 -4.6202285e+00 0.00e+00 4.66e-02  -1.7 2.42e-01    -  1.00e+00 8.95e-01f  1
   4 -4.6706263e+00 0.00e+00 1.14e-02  -2.5 1.10e-01    -  9.58e-01 1.00e+00f  1
   5 -4.6814116e+00 0.00e+00 1.50e-09  -3.8 1.70e-02    -  1.00e+00 1.00e+00f  1
   6 -4.6818144e+00 0.00e+00 1.84e-11  -5.7 5.26e-04    -  1.00e+00 1.00e+00f  1
   7 -4.6818182e+00 0.00e+00 2.51e-14  -8.6 4.37e-06    -  1.00e+00 1.00e+00f  1

Number of Iterations....: 7

                                   (scaled)                 (unscaled)
Objective...............:  -4.6818181986184140e+00   -4.6818181986184140e+00
Dual infeasibility......:   2.5091040356528538e-14    2.5091040356528538e-14
Constraint violation....:   0.0000000000000000e+00    0.0000000000000000e+00
Complementarity.........:   2.5179660572558233e-09    2.5179660572558233e-09
Overall NLP error.......:   2.5179660572558233e-09    2.5179660572558233e-09


Number of objective function evaluations             = 8
Number of objective gradient evaluations             = 8
Number of equality constraint evaluations            = 0
Number of inequality constraint evaluations          = 8
Number of equality constraint Jacobian evaluations   = 0
Number of inequality constraint Jacobian evaluations = 8
Number of Lagrangian Hessian evaluations             = 7
Total CPU secs in IPOPT (w/o function evaluations)   =      0.003
Total CPU secs in NLP function evaluations           =      0.000

EXIT: Optimal Solution Found.

************************ CUTEst statistics ************************


 Package used            :  IPOPT
 Problem                 :  HS76I     
 # variables             =               4
 # constraints           =               3
 # objective functions   =        0.1700000E+02
 # objective gradients   =        0.9000000E+01
 # objective Hessians    =        0.8000000E+01
 # Hessian-vector prdct  =        0.0000000E+00
 # constraints functions =        0.1800000E+02
 # constraints gradients =        0.1000000E+02
 # constraints Hessians  =        0.8000000E+01
 Exit code               =               0
 Final f                 =  -0.4681818E+01
 Set up time             =            0.00 seconds
 Solve time              =            0.02 seconds


******************************************************************

System Time =       0.0040000002 s.
